/*********************************************
 * OPL 12.6.0.0 Data
 * Author: pbertoni
 * Creation Date: Nov 7, 2014 at 2:31:39 PM
 *********************************************/

 Products =  { "kluski", "capellini", "fettucine" };
Resources = { "flour", "eggs" };
Consumption = [ [1.5, 0.2], [0.4, 0.4], [0.3, 0.6] ];
Capacity = [ 20, 40 ];
Demand = [ 100, 200, 300 ];
InsideCost = [ 0.6, 0.8, 0.3 ];
OutsideCost  = [ 0.8, 0.9, 0.4 ];
 